c cksystemsgroup.github.io/unicorn
c CNF contains a total of 244 clauses.
c CNF contains a total of 70 variables.
c CNF clauses cover 1 bad states.
c Variable name mapping (17 names):
c   1: input[bit=0]
c   2: input[bit=0]
c   7: input[bit=1]
c   8: input[bit=1]
c   15: input[bit=2]
c   16: input[bit=2]
c   24: input[bit=3]
c   25: input[bit=3]
c   34: input[bit=4]
c   35: input[bit=4]
c   43: input[bit=5]
c   44: input[bit=5]
c   52: input[bit=6]
c   53: input[bit=6]
c   61: input[bit=7]
c   62: input[bit=7]
c   70: ?
p cnf 70 244
-2 -3 0
2 3 0
-3 -4 0
3 4 0
1 4 -5 0
1 -4 5 0
-1 4 5 0
-1 -4 -5 0
-5 -6 0
5 6 0
-8 -9 0
8 9 0
-10 0
9 10 3 -11 0
9 10 -3 11 0
9 -10 3 11 0
9 -10 -3 -11 0
-9 10 3 11 0
-9 10 -3 -11 0
-9 -10 3 -11 0
-9 -10 -3 11 0
-1 -4 12 0
1 -12 0
4 -12 0
7 11 12 -13 0
7 11 -12 13 0
7 -11 12 13 0
7 -11 -12 -13 0
-7 11 12 13 0
-7 11 -12 -13 0
-7 -11 12 -13 0
-7 -11 -12 13 0
-6 -13 14 0
6 -14 0
13 -14 0
-16 -17 0
16 17 0
-18 0
9 10 -19 0
9 3 -19 0
-10 -3 19 0
10 3 -19 0
-9 -3 19 0
-9 -10 19 0
17 18 19 -20 0
17 18 -19 20 0
17 -18 19 20 0
17 -18 -19 -20 0
-17 18 19 20 0
-17 18 -19 -20 0
-17 -18 19 -20 0
-17 -18 -19 20 0
7 11 -21 0
7 12 -21 0
-11 -12 21 0
11 12 -21 0
-7 -12 21 0
-7 -11 21 0
15 20 21 -22 0
15 20 -21 22 0
15 -20 21 22 0
15 -20 -21 -22 0
-15 20 21 22 0
-15 20 -21 -22 0
-15 -20 21 -22 0
-15 -20 -21 22 0
-14 -22 23 0
14 -23 0
22 -23 0
-25 -26 0
25 26 0
-27 0
17 18 -28 0
17 19 -28 0
-18 -19 28 0
18 19 -28 0
-17 -19 28 0
-17 -18 28 0
26 27 28 -29 0
26 27 -28 29 0
26 -27 28 29 0
26 -27 -28 -29 0
-26 27 28 29 0
-26 27 -28 -29 0
-26 -27 28 -29 0
-26 -27 -28 29 0
15 20 -30 0
15 21 -30 0
-20 -21 30 0
20 21 -30 0
-15 -21 30 0
-15 -20 30 0
24 29 30 -31 0
24 29 -30 31 0
24 -29 30 31 0
24 -29 -30 -31 0
-24 29 30 31 0
-24 29 -30 -31 0
-24 -29 30 -31 0
-24 -29 -30 31 0
-31 -32 0
31 32 0
-23 -32 33 0
23 -33 0
32 -33 0
-35 -36 0
35 36 0
-37 0
26 27 -38 0
26 28 -38 0
-27 -28 38 0
27 28 -38 0
-26 -28 38 0
-26 -27 38 0
36 37 38 -39 0
36 37 -38 39 0
36 -37 38 39 0
36 -37 -38 -39 0
-36 37 38 39 0
-36 37 -38 -39 0
-36 -37 38 -39 0
-36 -37 -38 39 0
24 29 -40 0
24 30 -40 0
-29 -30 40 0
29 30 -40 0
-24 -30 40 0
-24 -29 40 0
34 39 40 -41 0
34 39 -40 41 0
34 -39 40 41 0
34 -39 -40 -41 0
-34 39 40 41 0
-34 39 -40 -41 0
-34 -39 40 -41 0
-34 -39 -40 41 0
-33 -41 42 0
33 -42 0
41 -42 0
-44 -45 0
44 45 0
-46 0
36 37 -47 0
36 38 -47 0
-37 -38 47 0
37 38 -47 0
-36 -38 47 0
-36 -37 47 0
45 46 47 -48 0
45 46 -47 48 0
45 -46 47 48 0
45 -46 -47 -48 0
-45 46 47 48 0
-45 46 -47 -48 0
-45 -46 47 -48 0
-45 -46 -47 48 0
34 39 -49 0
34 40 -49 0
-39 -40 49 0
39 40 -49 0
-34 -40 49 0
-34 -39 49 0
43 48 49 -50 0
43 48 -49 50 0
43 -48 49 50 0
43 -48 -49 -50 0
-43 48 49 50 0
-43 48 -49 -50 0
-43 -48 49 -50 0
-43 -48 -49 50 0
-42 -50 51 0
42 -51 0
50 -51 0
-53 -54 0
53 54 0
-55 0
45 46 -56 0
45 47 -56 0
-46 -47 56 0
46 47 -56 0
-45 -47 56 0
-45 -46 56 0
54 55 56 -57 0
54 55 -56 57 0
54 -55 56 57 0
54 -55 -56 -57 0
-54 55 56 57 0
-54 55 -56 -57 0
-54 -55 56 -57 0
-54 -55 -56 57 0
43 48 -58 0
43 49 -58 0
-48 -49 58 0
48 49 -58 0
-43 -49 58 0
-43 -48 58 0
52 57 58 -59 0
52 57 -58 59 0
52 -57 58 59 0
52 -57 -58 -59 0
-52 57 58 59 0
-52 57 -58 -59 0
-52 -57 58 -59 0
-52 -57 -58 59 0
-51 -59 60 0
51 -60 0
59 -60 0
-62 -63 0
62 63 0
-64 0
54 55 -65 0
54 56 -65 0
-55 -56 65 0
55 56 -65 0
-54 -56 65 0
-54 -55 65 0
63 64 65 -66 0
63 64 -65 66 0
63 -64 65 66 0
63 -64 -65 -66 0
-63 64 65 66 0
-63 64 -65 -66 0
-63 -64 65 -66 0
-63 -64 -65 66 0
52 57 -67 0
52 58 -67 0
-57 -58 67 0
57 58 -67 0
-52 -58 67 0
-52 -57 67 0
61 66 67 -68 0
61 66 -67 68 0
61 -66 67 68 0
61 -66 -67 -68 0
-61 66 67 68 0
-61 66 -67 -68 0
-61 -66 67 -68 0
-61 -66 -67 68 0
-68 -69 0
68 69 0
-60 -69 70 0
60 -70 0
69 -70 0
70 0
